NAME 
OBJSENSE MAX
ROWS
 N  OBJ
 L  packing[0]
 L  packing[1]
 L  packing[2]
 L  packing[3]
 L  packing[4]
 L  packing[5]
 L  packing[6]
 L  packing[7]
 L  packing[8]
 L  packing[9]
 L  packing[10]
 L  packing[11]
 L  packing[12]
 L  packing[13]
 L  packing[14]
 L  packing[15]
 L  packing[16]
 L  packing[17]
 L  packing[18]
 L  packing[19]
 L  packing[20]
 L  packing[21]
 L  packing[22]
 L  packing[23]
 L  packing[24]
 L  packing[25]
 L  packing[26]
 L  packing[27]
 L  packing[28]
 L  packing[29]
 L  packing[30]
 L  packing[31]
 L  packing[32]
 L  packing[33]
 L  packing[34]
 L  packing[35]
 L  packing[36]
 L  packing[37]
 L  packing[38]
 L  packing[39]
 L  packing[40]
 L  packing[41]
 L  packing[42]
 L  packing[43]
 L  packing[44]
 L  packing[45]
 L  packing[46]
 L  packing[47]
 L  packing[48]
 L  packing[49]
 L  R57     
COLUMNS
    MARKER    'MARKER'                 'INTORG'
    x[1]      OBJ       150
    x[1]      packing[1]  176
    x[1]      packing[2]  94
    x[1]      packing[3]  51
    x[1]      packing[4]  185
    x[1]      packing[6]  40
    x[1]      packing[7]  121
    x[1]      packing[8]  20
    x[1]      packing[10]  90
    x[1]      packing[11]  103
    x[1]      packing[13]  139
    x[1]      packing[14]  86
    x[1]      packing[15]  85
    x[1]      packing[16]  178
    x[1]      packing[18]  81
    x[1]      packing[20]  195
    x[1]      packing[21]  1
    x[1]      packing[22]  120
    x[1]      packing[23]  173
    x[1]      packing[24]  39
    x[1]      packing[25]  58
    x[1]      packing[26]  8
    x[1]      packing[27]  89
    x[1]      packing[29]  106
    x[1]      packing[30]  18
    x[1]      packing[31]  27
    x[1]      packing[34]  187
    x[1]      packing[36]  29
    x[1]      packing[37]  98
    x[1]      packing[38]  96
    x[1]      packing[40]  112
    x[1]      packing[41]  92
    x[1]      packing[43]  26
    x[1]      packing[44]  106
    x[1]      packing[45]  152
    x[1]      packing[46]  123
    x[1]      packing[48]  122
    x[1]      R57       1
    x[2]      OBJ       113
    x[2]      packing[0]  139
    x[2]      packing[2]  19
    x[2]      packing[3]  171
    x[2]      packing[5]  133
    x[2]      packing[6]  47
    x[2]      packing[8]  14
    x[2]      packing[9]  153
    x[2]      packing[10]  8
    x[2]      packing[11]  153
    x[2]      packing[12]  153
    x[2]      packing[13]  81
    x[2]      packing[14]  91
    x[2]      packing[15]  148
    x[2]      packing[16]  69
    x[2]      packing[17]  181
    x[2]      packing[18]  51
    x[2]      packing[19]  104
    x[2]      packing[20]  82
    x[2]      packing[21]  36
    x[2]      packing[23]  133
    x[2]      packing[24]  113
    x[2]      packing[25]  156
    x[2]      packing[26]  75
    x[2]      packing[27]  87
    x[2]      packing[31]  151
    x[2]      packing[32]  33
    x[2]      packing[33]  43
    x[2]      packing[34]  22
    x[2]      packing[35]  111
    x[2]      packing[36]  146
    x[2]      packing[37]  136
    x[2]      packing[38]  166
    x[2]      packing[39]  109
    x[2]      packing[41]  98
    x[2]      packing[43]  85
    x[2]      packing[44]  46
    x[2]      packing[45]  184
    x[2]      packing[46]  44
    x[2]      packing[47]  197
    x[2]      packing[48]  141
    x[3]      OBJ       19
    x[3]      packing[1]  171
    x[3]      packing[2]  4
    x[3]      packing[6]  160
    x[3]      packing[8]  124
    x[3]      packing[9]  18
    x[3]      packing[11]  21
    x[3]      packing[12]  116
    x[3]      packing[13]  123
    x[3]      packing[14]  121
    x[3]      packing[15]  32
    x[3]      packing[16]  177
    x[3]      packing[18]  18
    x[3]      packing[20]  54
    x[3]      packing[21]  97
    x[3]      packing[22]  131
    x[3]      packing[26]  18
    x[3]      packing[27]  123
    x[3]      packing[28]  127
    x[3]      packing[30]  55
    x[3]      packing[31]  80
    x[3]      packing[32]  63
    x[3]      packing[33]  107
    x[3]      packing[34]  85
    x[3]      packing[37]  35
    x[3]      packing[38]  197
    x[3]      packing[40]  69
    x[3]      packing[43]  81
    x[3]      packing[44]  134
    x[3]      packing[45]  37
    x[3]      packing[46]  43
    x[3]      packing[47]  45
    x[3]      packing[48]  64
    x[3]      packing[49]  121
    x[4]      OBJ       1
    x[4]      packing[0]  61
    x[4]      packing[2]  172
    x[4]      packing[3]  91
    x[4]      packing[4]  143
    x[4]      packing[7]  124
    x[4]      packing[8]  55
    x[4]      packing[9]  142
    x[4]      packing[10]  108
    x[4]      packing[11]  23
    x[4]      packing[12]  95
    x[4]      packing[13]  149
    x[4]      packing[14]  38
    x[4]      packing[15]  149
    x[4]      packing[16]  53
    x[4]      packing[18]  121
    x[4]      packing[19]  171
    x[4]      packing[22]  179
    x[4]      packing[23]  189
    x[4]      packing[25]  97
    x[4]      packing[26]  58
    x[4]      packing[27]  21
    x[4]      packing[28]  121
    x[4]      packing[31]  96
    x[4]      packing[32]  62
    x[4]      packing[33]  183
    x[4]      packing[35]  1
    x[4]      packing[39]  7
    x[4]      packing[40]  183
    x[4]      packing[42]  162
    x[4]      packing[43]  83
    x[4]      packing[44]  81
    x[4]      packing[45]  54
    x[4]      packing[47]  197
    x[4]      packing[48]  68
    x[4]      packing[49]  19
    x[5]      OBJ       24
    x[5]      packing[0]  163
    x[5]      packing[1]  92
    x[5]      packing[2]  64
    x[5]      packing[3]  184
    x[5]      packing[4]  121
    x[5]      packing[5]  15
    x[5]      packing[6]  178
    x[5]      packing[8]  67
    x[5]      packing[10]  130
    x[5]      packing[11]  35
    x[5]      packing[12]  113
    x[5]      packing[14]  139
    x[5]      packing[16]  16
    x[5]      packing[18]  167
    x[5]      packing[19]  90
    x[5]      packing[20]  9
    x[5]      packing[23]  169
    x[5]      packing[24]  113
    x[5]      packing[25]  69
    x[5]      packing[26]  1
    x[5]      packing[27]  121
    x[5]      packing[29]  30
    x[5]      packing[31]  120
    x[5]      packing[32]  95
    x[5]      packing[33]  34
    x[5]      packing[34]  51
    x[5]      packing[38]  65
    x[5]      packing[42]  174
    x[5]      packing[43]  96
    x[5]      packing[44]  74
    x[5]      packing[45]  114
    x[5]      packing[46]  193
    x[5]      packing[47]  136
    x[5]      packing[48]  121
    x[5]      packing[49]  3
    x[6]      OBJ       200
    x[6]      packing[0]  83
    x[6]      packing[2]  154
    x[6]      packing[4]  113
    x[6]      packing[6]  34
    x[6]      packing[7]  48
    x[6]      packing[8]  157
    x[6]      packing[9]  39
    x[6]      packing[11]  6
    x[6]      packing[13]  18
    x[6]      packing[15]  113
    x[6]      packing[17]  179
    x[6]      packing[18]  186
    x[6]      packing[20]  42
    x[6]      packing[21]  113
    x[6]      packing[24]  58
    x[6]      packing[25]  158
    x[6]      packing[26]  9
    x[6]      packing[27]  133
    x[6]      packing[29]  143
    x[6]      packing[30]  186
    x[6]      packing[31]  176
    x[6]      packing[32]  41
    x[6]      packing[33]  115
    x[6]      packing[34]  180
    x[6]      packing[36]  170
    x[6]      packing[37]  87
    x[6]      packing[38]  164
    x[6]      packing[39]  178
    x[6]      packing[40]  10
    x[6]      packing[43]  14
    x[6]      packing[44]  149
    x[6]      packing[45]  173
    x[6]      packing[46]  114
    x[6]      packing[47]  55
    x[6]      packing[49]  188
    x[6]      R57       1
    x[7]      OBJ       158
    x[7]      packing[0]  27
    x[7]      packing[1]  103
    x[7]      packing[2]  64
    x[7]      packing[3]  178
    x[7]      packing[4]  6
    x[7]      packing[5]  57
    x[7]      packing[6]  190
    x[7]      packing[8]  41
    x[7]      packing[9]  116
    x[7]      packing[10]  33
    x[7]      packing[11]  18
    x[7]      packing[12]  4
    x[7]      packing[13]  107
    x[7]      packing[14]  1
    x[7]      packing[15]  119
    x[7]      packing[16]  88
    x[7]      packing[17]  64
    x[7]      packing[18]  153
    x[7]      packing[21]  171
    x[7]      packing[22]  65
    x[7]      packing[23]  118
    x[7]      packing[24]  157
    x[7]      packing[25]  44
    x[7]      packing[26]  1
    x[7]      packing[27]  66
    x[7]      packing[28]  19
    x[7]      packing[29]  189
    x[7]      packing[30]  158
    x[7]      packing[31]  147
    x[7]      packing[32]  193
    x[7]      packing[33]  197
    x[7]      packing[34]  19
    x[7]      packing[35]  140
    x[7]      packing[36]  61
    x[7]      packing[37]  14
    x[7]      packing[39]  124
    x[7]      packing[40]  25
    x[7]      packing[43]  189
    x[7]      packing[44]  164
    x[7]      packing[46]  169
    x[7]      packing[47]  17
    x[7]      packing[49]  61
    x[8]      OBJ       118
    x[8]      packing[0]  135
    x[8]      packing[2]  38
    x[8]      packing[3]  76
    x[8]      packing[5]  192
    x[8]      packing[6]  116
    x[8]      packing[7]  189
    x[8]      packing[8]  194
    x[8]      packing[9]  190
    x[8]      packing[10]  129
    x[8]      packing[11]  2
    x[8]      packing[12]  188
    x[8]      packing[16]  63
    x[8]      packing[17]  168
    x[8]      packing[20]  34
    x[8]      packing[22]  154
    x[8]      packing[23]  193
    x[8]      packing[24]  123
    x[8]      packing[26]  23
    x[8]      packing[27]  189
    x[8]      packing[28]  40
    x[8]      packing[29]  188
    x[8]      packing[32]  182
    x[8]      packing[34]  138
    x[8]      packing[35]  165
    x[8]      packing[37]  182
    x[8]      packing[38]  49
    x[8]      packing[41]  122
    x[8]      packing[42]  73
    x[8]      packing[43]  83
    x[8]      packing[46]  173
    x[8]      packing[47]  65
    x[8]      packing[48]  138
    x[8]      packing[49]  184
    x[9]      OBJ       132
    x[9]      packing[0]  144
    x[9]      packing[1]  132
    x[9]      packing[2]  95
    x[9]      packing[4]  8
    x[9]      packing[5]  55
    x[9]      packing[6]  172
    x[9]      packing[7]  13
    x[9]      packing[9]  159
    x[9]      packing[10]  146
    x[9]      packing[11]  138
    x[9]      packing[12]  66
    x[9]      packing[13]  189
    x[9]      packing[14]  61
    x[9]      packing[15]  20
    x[9]      packing[16]  185
    x[9]      packing[17]  12
    x[9]      packing[18]  95
    x[9]      packing[19]  101
    x[9]      packing[20]  180
    x[9]      packing[22]  114
    x[9]      packing[24]  114
    x[9]      packing[25]  176
    x[9]      packing[26]  122
    x[9]      packing[27]  182
    x[9]      packing[28]  52
    x[9]      packing[29]  138
    x[9]      packing[30]  112
    x[9]      packing[31]  96
    x[9]      packing[34]  165
    x[9]      packing[35]  117
    x[9]      packing[36]  154
    x[9]      packing[37]  170
    x[9]      packing[38]  8
    x[9]      packing[39]  120
    x[9]      packing[40]  104
    x[9]      packing[41]  192
    x[9]      packing[42]  178
    x[9]      packing[43]  86
    x[9]      packing[45]  48
    x[9]      packing[46]  177
    x[9]      packing[47]  134
    x[9]      packing[49]  34
    x[10]     OBJ       130
    x[10]     packing[0]  148
    x[10]     packing[2]  48
    x[10]     packing[3]  187
    x[10]     packing[6]  41
    x[10]     packing[7]  46
    x[10]     packing[9]  132
    x[10]     packing[12]  137
    x[10]     packing[13]  182
    x[10]     packing[16]  141
    x[10]     packing[17]  44
    x[10]     packing[18]  175
    x[10]     packing[19]  119
    x[10]     packing[20]  171
    x[10]     packing[22]  35
    x[10]     packing[24]  109
    x[10]     packing[25]  161
    x[10]     packing[26]  65
    x[10]     packing[27]  42
    x[10]     packing[28]  138
    x[10]     packing[30]  83
    x[10]     packing[32]  24
    x[10]     packing[33]  10
    x[10]     packing[34]  125
    x[10]     packing[35]  144
    x[10]     packing[36]  84
    x[10]     packing[37]  59
    x[10]     packing[38]  147
    x[10]     packing[39]  11
    x[10]     packing[40]  40
    x[10]     packing[41]  55
    x[10]     packing[42]  86
    x[10]     packing[43]  72
    x[10]     packing[44]  104
    x[10]     packing[45]  110
    x[10]     packing[46]  109
    x[10]     packing[47]  74
    x[10]     packing[49]  125
    x[10]     R57       1
    x[11]     OBJ       125
    x[11]     packing[0]  64
    x[11]     packing[3]  71
    x[11]     packing[4]  45
    x[11]     packing[5]  49
    x[11]     packing[6]  76
    x[11]     packing[7]  100
    x[11]     packing[9]  71
    x[11]     packing[10]  26
    x[11]     packing[11]  43
    x[11]     packing[12]  178
    x[11]     packing[13]  187
    x[11]     packing[14]  86
    x[11]     packing[15]  142
    x[11]     packing[16]  187
    x[11]     packing[18]  91
    x[11]     packing[19]  94
    x[11]     packing[21]  161
    x[11]     packing[22]  41
    x[11]     packing[24]  24
    x[11]     packing[25]  33
    x[11]     packing[26]  101
    x[11]     packing[29]  172
    x[11]     packing[30]  30
    x[11]     packing[31]  108
    x[11]     packing[32]  47
    x[11]     packing[33]  158
    x[11]     packing[34]  6
    x[11]     packing[35]  76
    x[11]     packing[36]  10
    x[11]     packing[37]  96
    x[11]     packing[38]  140
    x[11]     packing[39]  164
    x[11]     packing[40]  194
    x[11]     packing[41]  53
    x[11]     packing[42]  150
    x[11]     packing[46]  133
    x[11]     packing[47]  139
    x[11]     packing[48]  194
    x[11]     packing[49]  6
    x[11]     R57       1
    x[12]     OBJ       151
    x[12]     packing[0]  71
    x[12]     packing[1]  93
    x[12]     packing[2]  127
    x[12]     packing[4]  142
    x[12]     packing[6]  188
    x[12]     packing[7]  41
    x[12]     packing[8]  158
    x[12]     packing[9]  162
    x[12]     packing[10]  21
    x[12]     packing[11]  66
    x[12]     packing[12]  8
    x[12]     packing[13]  10
    x[12]     packing[14]  169
    x[12]     packing[15]  38
    x[12]     packing[17]  55
    x[12]     packing[19]  187
    x[12]     packing[20]  59
    x[12]     packing[21]  176
    x[12]     packing[22]  36
    x[12]     packing[25]  17
    x[12]     packing[26]  7
    x[12]     packing[27]  169
    x[12]     packing[28]  155
    x[12]     packing[29]  129
    x[12]     packing[30]  3
    x[12]     packing[32]  111
    x[12]     packing[33]  74
    x[12]     packing[35]  61
    x[12]     packing[36]  137
    x[12]     packing[37]  146
    x[12]     packing[38]  57
    x[12]     packing[40]  69
    x[12]     packing[41]  21
    x[12]     packing[44]  65
    x[12]     packing[45]  18
    x[12]     packing[46]  5
    x[12]     packing[47]  9
    x[12]     packing[48]  170
    x[12]     packing[49]  108
    x[12]     R57       1
    x[13]     OBJ       72
    x[13]     packing[1]  81
    x[13]     packing[2]  133
    x[13]     packing[4]  161
    x[13]     packing[5]  27
    x[13]     packing[6]  111
    x[13]     packing[7]  88
    x[13]     packing[8]  152
    x[13]     packing[9]  29
    x[13]     packing[10]  108
    x[13]     packing[11]  2
    x[13]     packing[12]  173
    x[13]     packing[14]  166
    x[13]     packing[16]  130
    x[13]     packing[17]  46
    x[13]     packing[18]  116
    x[13]     packing[19]  22
    x[13]     packing[20]  174
    x[13]     packing[21]  67
    x[13]     packing[24]  2
    x[13]     packing[25]  50
    x[13]     packing[26]  138
    x[13]     packing[27]  128
    x[13]     packing[28]  25
    x[13]     packing[29]  24
    x[13]     packing[30]  155
    x[13]     packing[31]  14
    x[13]     packing[35]  185
    x[13]     packing[36]  4
    x[13]     packing[38]  171
    x[13]     packing[39]  132
    x[13]     packing[40]  124
    x[13]     packing[41]  119
    x[13]     packing[43]  68
    x[13]     packing[44]  67
    x[13]     packing[47]  142
    x[13]     packing[48]  35
    x[13]     packing[49]  90
    x[14]     OBJ       111
    x[14]     packing[0]  35
    x[14]     packing[1]  171
    x[14]     packing[2]  113
    x[14]     packing[3]  193
    x[14]     packing[4]  53
    x[14]     packing[5]  74
    x[14]     packing[7]  65
    x[14]     packing[8]  104
    x[14]     packing[9]  185
    x[14]     packing[11]  56
    x[14]     packing[12]  58
    x[14]     packing[13]  198
    x[14]     packing[14]  181
    x[14]     packing[17]  148
    x[14]     packing[18]  120
    x[14]     packing[19]  89
    x[14]     packing[20]  15
    x[14]     packing[21]  6
    x[14]     packing[23]  55
    x[14]     packing[24]  115
    x[14]     packing[25]  106
    x[14]     packing[28]  20
    x[14]     packing[29]  30
    x[14]     packing[31]  6
    x[14]     packing[32]  193
    x[14]     packing[33]  127
    x[14]     packing[34]  133
    x[14]     packing[37]  80
    x[14]     packing[39]  60
    x[14]     packing[41]  169
    x[14]     packing[42]  44
    x[14]     packing[43]  141
    x[14]     packing[45]  133
    x[14]     packing[46]  25
    x[14]     packing[48]  11
    x[14]     packing[49]  74
    x[15]     OBJ       40
    x[15]     packing[0]  62
    x[15]     packing[1]  149
    x[15]     packing[2]  10
    x[15]     packing[3]  154
    x[15]     packing[4]  76
    x[15]     packing[5]  24
    x[15]     packing[7]  115
    x[15]     packing[8]  76
    x[15]     packing[10]  112
    x[15]     packing[11]  16
    x[15]     packing[13]  37
    x[15]     packing[14]  112
    x[15]     packing[15]  191
    x[15]     packing[16]  181
    x[15]     packing[17]  118
    x[15]     packing[19]  160
    x[15]     packing[20]  134
    x[15]     packing[21]  194
    x[15]     packing[22]  141
    x[15]     packing[26]  188
    x[15]     packing[28]  138
    x[15]     packing[29]  121
    x[15]     packing[30]  25
    x[15]     packing[31]  119
    x[15]     packing[33]  145
    x[15]     packing[36]  137
    x[15]     packing[37]  5
    x[15]     packing[39]  102
    x[15]     packing[40]  13
    x[15]     packing[41]  37
    x[15]     packing[42]  132
    x[15]     packing[44]  4
    x[15]     packing[45]  161
    x[15]     packing[46]  102
    x[15]     packing[47]  180
    x[15]     packing[48]  127
    x[15]     packing[49]  150
    x[16]     OBJ       121
    x[16]     packing[1]  119
    x[16]     packing[2]  46
    x[16]     packing[3]  92
    x[16]     packing[4]  8
    x[16]     packing[5]  90
    x[16]     packing[6]  32
    x[16]     packing[9]  159
    x[16]     packing[10]  181
    x[16]     packing[11]  44
    x[16]     packing[12]  45
    x[16]     packing[13]  31
    x[16]     packing[14]  156
    x[16]     packing[15]  111
    x[16]     packing[16]  71
    x[16]     packing[17]  48
    x[16]     packing[18]  149
    x[16]     packing[19]  38
    x[16]     packing[20]  147
    x[16]     packing[21]  70
    x[16]     packing[22]  126
    x[16]     packing[23]  79
    x[16]     packing[24]  127
    x[16]     packing[26]  100
    x[16]     packing[27]  148
    x[16]     packing[28]  116
    x[16]     packing[30]  157
    x[16]     packing[31]  98
    x[16]     packing[32]  76
    x[16]     packing[35]  60
    x[16]     packing[39]  92
    x[16]     packing[40]  73
    x[16]     packing[41]  131
    x[16]     packing[42]  114
    x[16]     packing[43]  6
    x[16]     packing[44]  192
    x[16]     packing[46]  143
    x[16]     packing[47]  164
    x[16]     packing[49]  198
    x[16]     R57       1
    x[17]     OBJ       20
    x[17]     packing[0]  34
    x[17]     packing[1]  49
    x[17]     packing[2]  118
    x[17]     packing[3]  122
    x[17]     packing[5]  115
    x[17]     packing[7]  17
    x[17]     packing[8]  175
    x[17]     packing[9]  8
    x[17]     packing[10]  162
    x[17]     packing[12]  110
    x[17]     packing[14]  107
    x[17]     packing[15]  16
    x[17]     packing[16]  154
    x[17]     packing[17]  160
    x[17]     packing[18]  160
    x[17]     packing[19]  26
    x[17]     packing[22]  197
    x[17]     packing[23]  41
    x[17]     packing[25]  112
    x[17]     packing[26]  142
    x[17]     packing[27]  108
    x[17]     packing[28]  19
    x[17]     packing[29]  100
    x[17]     packing[32]  178
    x[17]     packing[34]  196
    x[17]     packing[35]  113
    x[17]     packing[37]  33
    x[17]     packing[38]  135
    x[17]     packing[39]  123
    x[17]     packing[40]  176
    x[17]     packing[41]  70
    x[17]     packing[42]  56
    x[17]     packing[43]  184
    x[17]     packing[46]  121
    x[17]     packing[47]  35
    x[17]     packing[48]  196
    x[17]     packing[49]  86
    x[18]     OBJ       134
    x[18]     packing[0]  67
    x[18]     packing[1]  45
    x[18]     packing[2]  60
    x[18]     packing[3]  161
    x[18]     packing[4]  92
    x[18]     packing[5]  152
    x[18]     packing[6]  128
    x[18]     packing[8]  45
    x[18]     packing[10]  41
    x[18]     packing[12]  187
    x[18]     packing[13]  52
    x[18]     packing[15]  167
    x[18]     packing[16]  188
    x[18]     packing[17]  127
    x[18]     packing[18]  158
    x[18]     packing[19]  182
    x[18]     packing[21]  6
    x[18]     packing[24]  173
    x[18]     packing[25]  153
    x[18]     packing[26]  102
    x[18]     packing[27]  19
    x[18]     packing[28]  96
    x[18]     packing[30]  176
    x[18]     packing[31]  120
    x[18]     packing[32]  120
    x[18]     packing[35]  3
    x[18]     packing[37]  107
    x[18]     packing[38]  148
    x[18]     packing[40]  6
    x[18]     packing[42]  147
    x[18]     packing[43]  20
    x[18]     packing[45]  101
    x[18]     packing[46]  110
    x[18]     packing[47]  92
    x[18]     packing[48]  75
    x[18]     R57       1
    x[19]     OBJ       134
    x[19]     packing[0]  13
    x[19]     packing[3]  180
    x[19]     packing[4]  125
    x[19]     packing[5]  198
    x[19]     packing[6]  154
    x[19]     packing[7]  166
    x[19]     packing[8]  56
    x[19]     packing[9]  175
    x[19]     packing[10]  26
    x[19]     packing[11]  17
    x[19]     packing[12]  102
    x[19]     packing[13]  84
    x[19]     packing[14]  181
    x[19]     packing[16]  2
    x[19]     packing[17]  173
    x[19]     packing[19]  170
    x[19]     packing[21]  149
    x[19]     packing[22]  44
    x[19]     packing[23]  146
    x[19]     packing[24]  128
    x[19]     packing[25]  46
    x[19]     packing[26]  180
    x[19]     packing[27]  34
    x[19]     packing[28]  142
    x[19]     packing[29]  69
    x[19]     packing[30]  51
    x[19]     packing[31]  113
    x[19]     packing[32]  132
    x[19]     packing[33]  23
    x[19]     packing[34]  3
    x[19]     packing[35]  91
    x[19]     packing[37]  94
    x[19]     packing[38]  15
    x[19]     packing[39]  33
    x[19]     packing[40]  55
    x[19]     packing[42]  52
    x[19]     packing[43]  9
    x[19]     packing[44]  64
    x[19]     packing[45]  89
    x[19]     packing[46]  79
    x[19]     packing[47]  88
    x[19]     packing[48]  140
    x[20]     OBJ       71
    x[20]     packing[0]  45
    x[20]     packing[1]  19
    x[20]     packing[2]  77
    x[20]     packing[3]  123
    x[20]     packing[4]  146
    x[20]     packing[6]  14
    x[20]     packing[7]  172
    x[20]     packing[8]  114
    x[20]     packing[11]  123
    x[20]     packing[12]  79
    x[20]     packing[14]  66
    x[20]     packing[15]  104
    x[20]     packing[16]  96
    x[20]     packing[18]  7
    x[20]     packing[19]  99
    x[20]     packing[20]  152
    x[20]     packing[21]  191
    x[20]     packing[22]  28
    x[20]     packing[23]  162
    x[20]     packing[24]  127
    x[20]     packing[25]  59
    x[20]     packing[26]  110
    x[20]     packing[27]  66
    x[20]     packing[28]  80
    x[20]     packing[29]  9
    x[20]     packing[30]  76
    x[20]     packing[31]  156
    x[20]     packing[32]  168
    x[20]     packing[33]  102
    x[20]     packing[36]  133
    x[20]     packing[37]  111
    x[20]     packing[38]  158
    x[20]     packing[39]  4
    x[20]     packing[40]  90
    x[20]     packing[42]  119
    x[20]     packing[43]  15
    x[20]     packing[44]  142
    x[20]     packing[45]  3
    x[20]     packing[46]  120
    x[20]     packing[47]  193
    x[20]     packing[48]  139
    x[20]     packing[49]  104
    MARKER    'MARKER'                 'INTEND'
RHS
    RHS1      packing[0]  646
    RHS1      packing[1]  700
    RHS1      packing[2]  718
    RHS1      packing[3]  1017
    RHS1      packing[4]  712
    RHS1      packing[5]  591
    RHS1      packing[6]  841
    RHS1      packing[7]  653
    RHS1      packing[8]  776
    RHS1      packing[9]  869
    RHS1      packing[10]  661
    RHS1      packing[11]  433
    RHS1      packing[12]  906
    RHS1      packing[13]  794
    RHS1      packing[14]  881
    RHS1      packing[15]  718
    RHS1      packing[16]  990
    RHS1      packing[17]  762
    RHS1      packing[18]  924
    RHS1      packing[19]  826
    RHS1      packing[20]  724
    RHS1      packing[21]  719
    RHS1      packing[22]  706
    RHS1      packing[23]  729
    RHS1      packing[24]  761
    RHS1      packing[25]  748
    RHS1      packing[26]  724
    RHS1      packing[27]  863
    RHS1      packing[28]  644
    RHS1      packing[29]  724
    RHS1      packing[30]  643
    RHS1      packing[31]  814
    RHS1      packing[32]  859
    RHS1      packing[33]  659
    RHS1      packing[34]  655
    RHS1      packing[35]  634
    RHS1      packing[36]  533
    RHS1      packing[37]  727
    RHS1      packing[38]  858
    RHS1      packing[39]  630
    RHS1      packing[40]  672
    RHS1      packing[41]  580
    RHS1      packing[42]  744
    RHS1      packing[43]  629
    RHS1      packing[44]  696
    RHS1      packing[45]  689
    RHS1      packing[46]  992
    RHS1      packing[47]  981
    RHS1      packing[48]  871
    RHS1      packing[49]  776
    RHS1      R57       6
BOUNDS
 BV BND1      x[1]    
 BV BND1      x[2]    
 BV BND1      x[3]    
 BV BND1      x[4]    
 BV BND1      x[5]    
 BV BND1      x[6]    
 BV BND1      x[7]    
 BV BND1      x[8]    
 BV BND1      x[9]    
 BV BND1      x[10]   
 BV BND1      x[11]   
 BV BND1      x[12]   
 BV BND1      x[13]   
 BV BND1      x[14]   
 BV BND1      x[15]   
 BV BND1      x[16]   
 BV BND1      x[17]   
 BV BND1      x[18]   
 BV BND1      x[19]   
 BV BND1      x[20]   
ENDATA
